15 6
9 10
15 12
6 5
12 11
13 12
11 4
11 3
12 15
6 3
9 20
15 5
9 15
8 10
11 17
7 5
6 4
13 11
6 11
11 18
10 18
6 17
11 20
7 8
7 12
14 17
8 15
10 3
9 9
7 14
10 14
12 5
11 5
7 6
15 7
15 18
13 5
8 6
9 13
7 13
10 18
12 10
15 6
10 8
6 10
6 11
7 7
10 4
12 19
6 5
13 4
8 3
7 20
15 19
11 4
10 6
13 19
6 13
6 11
5 11
13 17
5 7
5 11
10 5
11 3
10 19
9 18
13 17
14 5
12 8
8 6
12 4
12 7
12 16
5 12
11 16
13 7
11 12
10 7
11 16
8 20
5 13
8 19
8 17
13 11
7 7
14 3
7 19
14 20
12 17
6 13
6 17
9 4
10 20
9 15
13 7
12 8
10 18
13 10
6 7